(set-logic QF_S)
(declare-fun var0 () String)
(declare-fun var1 () String)
(declare-fun var2 () String)
(declare-fun var3 () String)
(declare-fun var4 () Int)
(declare-fun var5 () Bool)
(declare-fun var6 () Int)
(declare-fun var7 () Int)
(assert (>= (str.to.int (str.replace var0 var1 var2)) (str.to.int "ZEeB")))
(assert (str.prefixof (str.at var3 var4) (str.replace var1 "BE(:" var0)))
(assert (not (not var5)))
(assert (>= (str.indexof (str.at var1 144) (str.substr "s3T@)E" var6 var7) (str.to.int var2)) (str.indexof var3 var0 163)))
(check-sat)